# Generated by ConicBenchmarkUtilities.jl
VER
2

OBJSENSE
MIN

VAR
252 1
F 252

INT
179
0
1
2
3
4
5
6
7
8
9
10
11
12
13
14
15
16
17
18
19
20
21
22
23
24
25
26
27
28
29
30
31
32
33
34
35
36
37
38
39
40
41
42
43
44
45
46
47
48
49
50
51
52
54
55
56
57
58
59
60
61
62
63
64
65
66
67
68
69
70
71
72
73
74
75
76
77
78
79
80
81
82
83
84
85
86
87
88
89
90
91
92
93
94
95
96
97
98
99
100
101
102
103
104
105
106
107
108
109
110
111
112
113
114
115
116
117
118
119
120
121
122
123
124
125
126
127
128
129
130
131
132
133
134
135
136
137
138
139
140
141
142
143
144
145
146
147
148
149
150
151
152
153
154
155
156
157
158
159
160
161
162
163
164
165
166
167
168
169
170
171
172
173
174
175
176
177
178
179

CON
695 623
L= 1
L+ 1
L+ 1
L+ 1
L+ 1
L+ 1
L+ 1
L+ 1
L+ 1
L+ 1
L+ 1
L+ 1
L+ 1
L+ 1
L+ 1
L+ 1
L+ 1
L+ 1
L+ 1
L+ 1
L+ 1
L+ 1
L+ 1
L+ 1
L+ 1
L+ 1
L+ 1
L+ 1
L+ 1
L+ 1
L+ 1
L= 1
L= 1
L= 1
L= 1
L= 1
L= 1
L+ 1
L+ 1
L+ 1
L+ 1
L+ 1
L+ 1
L= 1
L= 1
L= 1
L= 1
L= 1
L= 1
L= 1
L= 1
L= 1
L= 1
L= 1
L= 1
L= 1
L= 1
L= 1
L= 1
L= 1
L= 1
L= 1
L= 1
L= 1
L= 1
L= 1
L= 1
L= 1
L= 1
L= 1
L= 1
L= 1
L= 1
L= 1
L= 1
L= 1
L= 1
L= 1
L= 1
L+ 1
L+ 1
L+ 1
L+ 1
L+ 1
L+ 1
L+ 1
L+ 1
L+ 1
L+ 1
L+ 1
L+ 1
L+ 1
L+ 1
L+ 1
L+ 1
L+ 1
L+ 1
L+ 1
L+ 1
L+ 1
L+ 1
L+ 1
L+ 1
L+ 1
L+ 1
L+ 1
L+ 1
L+ 1
L+ 1
L+ 1
L+ 1
L+ 1
L+ 1
L+ 1
L+ 1
Q 3
L+ 1
L+ 1
Q 3
L+ 1
L+ 1
Q 3
L+ 1
L+ 1
Q 3
L+ 1
L+ 1
Q 3
L+ 1
L+ 1
Q 3
L+ 1
L+ 1
L+ 1
Q 3
L+ 1
L+ 1
Q 3
L+ 1
L+ 1
Q 3
L+ 1
L+ 1
Q 3
L+ 1
L+ 1
Q 3
L+ 1
L+ 1
Q 3
L+ 1
L+ 1
L+ 1
Q 3
L+ 1
L+ 1
Q 3
L+ 1
L+ 1
Q 3
L+ 1
L+ 1
Q 3
L+ 1
L+ 1
Q 3
L+ 1
L+ 1
Q 3
L+ 1
L+ 1
L+ 1
Q 3
L+ 1
L+ 1
Q 3
L+ 1
L+ 1
Q 3
L+ 1
L+ 1
Q 3
L+ 1
L+ 1
Q 3
L+ 1
L+ 1
Q 3
L+ 1
L+ 1
L+ 1
Q 3
L+ 1
L+ 1
Q 3
L+ 1
L+ 1
Q 3
L+ 1
L+ 1
Q 3
L+ 1
L+ 1
Q 3
L+ 1
L+ 1
Q 3
L+ 1
L+ 1
L+ 1
Q 3
L+ 1
L+ 1
Q 3
L+ 1
L+ 1
Q 3
L+ 1
L+ 1
Q 3
L+ 1
L+ 1
Q 3
L+ 1
L+ 1
Q 3
L+ 1
L+ 1
L+ 1
L+ 1
L+ 1
L+ 1
L+ 1
L+ 1
L+ 1
L+ 1
L+ 1
L+ 1
L+ 1
L+ 1
L+ 1
L+ 1
L+ 1
L+ 1
L+ 1
L+ 1
L+ 1
L+ 1
L+ 1
L+ 1
L+ 1
L+ 1
L+ 1
L+ 1
L+ 1
L+ 1
L+ 1
L+ 1
L+ 1
L+ 1
L+ 1
L+ 1
L+ 1
L+ 1
L+ 1
L+ 1
L+ 1
L+ 1
L+ 1
L+ 1
L+ 1
L+ 1
L+ 1
L+ 1
L+ 1
L+ 1
L+ 1
L+ 1
L+ 1
L+ 1
L+ 1
L+ 1
L+ 1
L+ 1
L+ 1
L+ 1
L+ 1
L+ 1
L+ 1
L+ 1
L+ 1
L+ 1
L+ 1
L+ 1
L+ 1
L+ 1
L+ 1
L+ 1
L+ 1
L+ 1
L+ 1
L+ 1
L+ 1
L+ 1
L+ 1
L+ 1
L+ 1
L+ 1
L+ 1
L+ 1
L+ 1
L+ 1
L+ 1
L+ 1
L+ 1
L+ 1
L+ 1
L+ 1
L+ 1
L+ 1
L+ 1
L+ 1
L+ 1
L+ 1
L+ 1
L+ 1
L+ 1
L+ 1
L+ 1
L+ 1
L+ 1
L+ 1
L+ 1
L+ 1
L+ 1
L+ 1
L+ 1
L+ 1
L+ 1
L+ 1
L+ 1
L+ 1
L+ 1
L+ 1
L+ 1
L+ 1
L+ 1
L+ 1
L+ 1
L+ 1
L+ 1
L+ 1
L+ 1
L+ 1
L+ 1
L+ 1
L+ 1
L+ 1
L+ 1
L+ 1
L+ 1
L+ 1
L+ 1
L+ 1
L+ 1
L+ 1
L+ 1
L+ 1
L+ 1
L+ 1
L+ 1
L+ 1
L+ 1
L+ 1
L+ 1
L+ 1
L+ 1
L+ 1
L+ 1
L+ 1
L+ 1
L+ 1
L+ 1
L+ 1
L+ 1
L+ 1
L+ 1
L+ 1
L+ 1
L+ 1
L+ 1
L+ 1
L+ 1
L+ 1
L+ 1
L+ 1
L+ 1
L+ 1
L+ 1
L+ 1
L+ 1
L+ 1
L+ 1
L+ 1
L+ 1
L+ 1
L+ 1
L+ 1
L+ 1
L+ 1
L+ 1
L+ 1
L+ 1
L+ 1
L+ 1
L+ 1
L+ 1
L+ 1
L+ 1
L+ 1
L+ 1
L+ 1
L+ 1
L+ 1
L+ 1
L+ 1
L+ 1
L+ 1
L+ 1
L+ 1
L+ 1
L+ 1
L+ 1
L+ 1
L+ 1
L+ 1
L+ 1
L+ 1
L+ 1
L+ 1
L+ 1
L+ 1
L+ 1
L+ 1
L+ 1
L+ 1
L+ 1
L+ 1
L+ 1
L+ 1
L+ 1
L+ 1
L+ 1
L+ 1
L+ 1
L+ 1
L+ 1
L+ 1
L+ 1
L+ 1
L+ 1
L+ 1
L+ 1
L+ 1
L+ 1
L+ 1
L+ 1
L+ 1
L+ 1
L+ 1
L+ 1
L+ 1
L+ 1
L+ 1
L+ 1
L+ 1
L+ 1
L+ 1
L+ 1
L+ 1
L+ 1
L+ 1
L+ 1
L+ 1
L+ 1
L+ 1
L+ 1
L+ 1
L+ 1
L+ 1
L+ 1
L+ 1
L+ 1
L+ 1
L+ 1
L+ 1
L+ 1
L+ 1
L+ 1
L+ 1
L+ 1
L+ 1
L+ 1
L+ 1
L+ 1
L+ 1
L+ 1
L+ 1
L+ 1
L+ 1
L+ 1
L+ 1
L+ 1
L+ 1
L+ 1
L+ 1
L+ 1
L+ 1
L+ 1
L+ 1
L+ 1
L+ 1
L+ 1
L+ 1
L+ 1
L+ 1
L+ 1
L+ 1
L+ 1
L+ 1
L+ 1
L+ 1
L+ 1
L+ 1
L+ 1
L+ 1
L+ 1
L+ 1
L+ 1
L+ 1
L+ 1
L+ 1
L+ 1
L+ 1
L+ 1
L+ 1
L+ 1
L+ 1
L+ 1
L+ 1
L+ 1
L+ 1
L+ 1
L+ 1
L+ 1
L+ 1
L+ 1
L+ 1
L+ 1
L+ 1
L+ 1
L+ 1
L+ 1
L+ 1
L+ 1
L+ 1
L+ 1
L+ 1
L+ 1
L+ 1
L+ 1
L+ 1
L+ 1
L+ 1
L+ 1
L+ 1
L+ 1
L+ 1
L+ 1
L+ 1
L+ 1
L+ 1
L+ 1
L+ 1
L+ 1
L+ 1
L+ 1
L+ 1
L+ 1
L+ 1
L+ 1
L+ 1
L+ 1
L+ 1
L+ 1
L+ 1
L+ 1
L+ 1
L+ 1
L+ 1
L+ 1
L+ 1
L+ 1
L+ 1
L+ 1
L+ 1
L+ 1
L+ 1
L+ 1
L+ 1
L+ 1
L+ 1
L+ 1
L+ 1
L+ 1
L+ 1
L+ 1
L+ 1
L+ 1
L+ 1
L+ 1
L+ 1
L+ 1

OBJACOORD
1
53 1.0

ACOORD
1980
0 0 0.1
19 0 -1.0
25 0 14.0
301 0 1.0
302 0 -1.0
0 1 0.2
20 1 -1.0
26 1 12.0
303 1 1.0
304 1 -1.0
0 2 0.3
21 2 -1.0
27 2 8.0
305 2 1.0
306 2 -1.0
0 3 0.4
22 3 -1.0
28 3 7.0
307 3 1.0
308 3 -1.0
0 4 0.5
23 4 -1.0
29 4 4.0
309 4 1.0
310 4 -1.0
0 5 0.6
24 5 -1.0
30 5 2.0
311 5 1.0
312 5 -1.0
0 6 1.0
19 6 1.0
25 6 -1.0
31 6 -3.0
37 6 -1.0
145 6 -1.0
176 6 -1.0
207 6 -1.0
238 6 -1.0
269 6 -1.0
300 6 -1.0
361 6 1.0
362 6 -1.0
0 7 2.0
19 7 2.0
25 7 -2.0
31 7 -8.0
37 7 -1.0
145 7 -2.0
176 7 -2.0
207 7 -2.0
238 7 -2.0
269 7 -2.0
300 7 -2.0
363 7 1.0
364 7 -1.0
0 8 3.0
19 8 3.0
25 8 -3.0
31 8 -15.0
37 8 -1.0
145 8 -3.0
176 8 -3.0
207 8 -3.0
238 8 -3.0
269 8 -3.0
300 8 -3.0
365 8 1.0
366 8 -1.0
0 9 4.0
19 9 4.0
25 9 -4.0
31 9 -24.0
37 9 -1.0
145 9 -4.0
176 9 -4.0
207 9 -4.0
238 9 -4.0
269 9 -4.0
300 9 -4.0
367 9 1.0
368 9 -1.0
0 10 5.0
19 10 5.0
25 10 -5.0
31 10 -35.0
37 10 -1.0
145 10 -5.0
176 10 -5.0
207 10 -5.0
238 10 -5.0
269 10 -5.0
300 10 -5.0
369 10 1.0
370 10 -1.0
0 11 6.0
19 11 6.0
25 11 -6.0
31 11 -48.0
37 11 -1.0
145 11 -6.0
176 11 -6.0
207 11 -6.0
238 11 -6.0
269 11 -6.0
300 11 -6.0
371 11 1.0
372 11 -1.0
0 12 7.0
19 12 7.0
25 12 -7.0
31 12 -63.0
37 12 -1.0
145 12 -7.0
176 12 -7.0
207 12 -7.0
238 12 -7.0
269 12 -7.0
300 12 -7.0
373 12 1.0
374 12 -1.0
0 13 8.0
19 13 8.0
25 13 -8.0
31 13 -80.0
37 13 -1.0
145 13 -8.0
176 13 -8.0
207 13 -8.0
238 13 -8.0
269 13 -8.0
300 13 -8.0
375 13 1.0
376 13 -1.0
0 14 9.0
19 14 9.0
25 14 -9.0
31 14 -99.0
37 14 -1.0
145 14 -9.0
176 14 -9.0
207 14 -9.0
238 14 -9.0
269 14 -9.0
300 14 -9.0
377 14 1.0
378 14 -1.0
0 15 10.0
19 15 10.0
25 15 -10.0
31 15 -120.0
37 15 -1.0
145 15 -10.0
176 15 -10.0
207 15 -10.0
238 15 -10.0
269 15 -10.0
300 15 -10.0
379 15 1.0
380 15 -1.0
0 16 11.0
19 16 11.0
25 16 -11.0
31 16 -143.0
37 16 -1.0
145 16 -11.0
176 16 -11.0
207 16 -11.0
238 16 -11.0
269 16 -11.0
300 16 -11.0
381 16 1.0
382 16 -1.0
0 17 12.0
19 17 12.0
25 17 -12.0
31 17 -168.0
37 17 -1.0
145 17 -12.0
176 17 -12.0
207 17 -12.0
238 17 -12.0
269 17 -12.0
300 17 -12.0
383 17 1.0
384 17 -1.0
0 18 13.0
19 18 13.0
25 18 -13.0
31 18 -195.0
37 18 -1.0
145 18 -13.0
176 18 -13.0
207 18 -13.0
238 18 -13.0
269 18 -13.0
300 18 -13.0
385 18 1.0
386 18 -1.0
0 19 14.0
19 19 14.0
25 19 -14.0
31 19 -224.0
37 19 -1.0
145 19 -14.0
176 19 -14.0
207 19 -14.0
238 19 -14.0
269 19 -14.0
300 19 -14.0
387 19 1.0
388 19 -1.0
0 20 1.0
20 20 1.0
26 20 -1.0
32 20 -3.0
38 20 -1.0
145 20 -1.0
176 20 -1.0
207 20 -1.0
238 20 -1.0
269 20 -1.0
300 20 -1.0
389 20 1.0
390 20 -1.0
0 21 2.0
20 21 2.0
26 21 -2.0
32 21 -8.0
38 21 -1.0
145 21 -2.0
176 21 -2.0
207 21 -2.0
238 21 -2.0
269 21 -2.0
300 21 -2.0
391 21 1.0
392 21 -1.0
0 22 3.0
20 22 3.0
26 22 -3.0
32 22 -15.0
38 22 -1.0
145 22 -3.0
176 22 -3.0
207 22 -3.0
238 22 -3.0
269 22 -3.0
300 22 -3.0
393 22 1.0
394 22 -1.0
0 23 4.0
20 23 4.0
26 23 -4.0
32 23 -24.0
38 23 -1.0
145 23 -4.0
176 23 -4.0
207 23 -4.0
238 23 -4.0
269 23 -4.0
300 23 -4.0
395 23 1.0
396 23 -1.0
0 24 5.0
20 24 5.0
26 24 -5.0
32 24 -35.0
38 24 -1.0
145 24 -5.0
176 24 -5.0
207 24 -5.0
238 24 -5.0
269 24 -5.0
300 24 -5.0
397 24 1.0
398 24 -1.0
0 25 6.0
20 25 6.0
26 25 -6.0
32 25 -48.0
38 25 -1.0
145 25 -6.0
176 25 -6.0
207 25 -6.0
238 25 -6.0
269 25 -6.0
300 25 -6.0
399 25 1.0
400 25 -1.0
0 26 7.0
20 26 7.0
26 26 -7.0
32 26 -63.0
38 26 -1.0
145 26 -7.0
176 26 -7.0
207 26 -7.0
238 26 -7.0
269 26 -7.0
300 26 -7.0
401 26 1.0
402 26 -1.0
0 27 8.0
20 27 8.0
26 27 -8.0
32 27 -80.0
38 27 -1.0
145 27 -8.0
176 27 -8.0
207 27 -8.0
238 27 -8.0
269 27 -8.0
300 27 -8.0
403 27 1.0
404 27 -1.0
0 28 9.0
20 28 9.0
26 28 -9.0
32 28 -99.0
38 28 -1.0
145 28 -9.0
176 28 -9.0
207 28 -9.0
238 28 -9.0
269 28 -9.0
300 28 -9.0
405 28 1.0
406 28 -1.0
0 29 10.0
20 29 10.0
26 29 -10.0
32 29 -120.0
38 29 -1.0
145 29 -10.0
176 29 -10.0
207 29 -10.0
238 29 -10.0
269 29 -10.0
300 29 -10.0
407 29 1.0
408 29 -1.0
0 30 11.0
20 30 11.0
26 30 -11.0
32 30 -143.0
38 30 -1.0
145 30 -11.0
176 30 -11.0
207 30 -11.0
238 30 -11.0
269 30 -11.0
300 30 -11.0
409 30 1.0
410 30 -1.0
0 31 12.0
20 31 12.0
26 31 -12.0
32 31 -168.0
38 31 -1.0
145 31 -12.0
176 31 -12.0
207 31 -12.0
238 31 -12.0
269 31 -12.0
300 31 -12.0
411 31 1.0
412 31 -1.0
0 32 1.0
21 32 1.0
27 32 -1.0
33 32 -3.0
39 32 -1.0
145 32 -1.0
176 32 -1.0
207 32 -1.0
238 32 -1.0
269 32 -1.0
300 32 -1.0
413 32 1.0
414 32 -1.0
0 33 2.0
21 33 2.0
27 33 -2.0
33 33 -8.0
39 33 -1.0
145 33 -2.0
176 33 -2.0
207 33 -2.0
238 33 -2.0
269 33 -2.0
300 33 -2.0
415 33 1.0
416 33 -1.0
0 34 3.0
21 34 3.0
27 34 -3.0
33 34 -15.0
39 34 -1.0
145 34 -3.0
176 34 -3.0
207 34 -3.0
238 34 -3.0
269 34 -3.0
300 34 -3.0
417 34 1.0
418 34 -1.0
0 35 4.0
21 35 4.0
27 35 -4.0
33 35 -24.0
39 35 -1.0
145 35 -4.0
176 35 -4.0
207 35 -4.0
238 35 -4.0
269 35 -4.0
300 35 -4.0
419 35 1.0
420 35 -1.0
0 36 5.0
21 36 5.0
27 36 -5.0
33 36 -35.0
39 36 -1.0
145 36 -5.0
176 36 -5.0
207 36 -5.0
238 36 -5.0
269 36 -5.0
300 36 -5.0
421 36 1.0
422 36 -1.0
0 37 6.0
21 37 6.0
27 37 -6.0
33 37 -48.0
39 37 -1.0
145 37 -6.0
176 37 -6.0
207 37 -6.0
238 37 -6.0
269 37 -6.0
300 37 -6.0
423 37 1.0
424 37 -1.0
0 38 7.0
21 38 7.0
27 38 -7.0
33 38 -63.0
39 38 -1.0
145 38 -7.0
176 38 -7.0
207 38 -7.0
238 38 -7.0
269 38 -7.0
300 38 -7.0
425 38 1.0
426 38 -1.0
0 39 8.0
21 39 8.0
27 39 -8.0
33 39 -80.0
39 39 -1.0
145 39 -8.0
176 39 -8.0
207 39 -8.0
238 39 -8.0
269 39 -8.0
300 39 -8.0
427 39 1.0
428 39 -1.0
0 40 1.0
22 40 1.0
28 40 -1.0
34 40 -3.0
40 40 -1.0
145 40 -1.0
176 40 -1.0
207 40 -1.0
238 40 -1.0
269 40 -1.0
300 40 -1.0
429 40 1.0
430 40 -1.0
0 41 2.0
22 41 2.0
28 41 -2.0
34 41 -8.0
40 41 -1.0
145 41 -2.0
176 41 -2.0
207 41 -2.0
238 41 -2.0
269 41 -2.0
300 41 -2.0
431 41 1.0
432 41 -1.0
0 42 3.0
22 42 3.0
28 42 -3.0
34 42 -15.0
40 42 -1.0
145 42 -3.0
176 42 -3.0
207 42 -3.0
238 42 -3.0
269 42 -3.0
300 42 -3.0
433 42 1.0
434 42 -1.0
0 43 4.0
22 43 4.0
28 43 -4.0
34 43 -24.0
40 43 -1.0
145 43 -4.0
176 43 -4.0
207 43 -4.0
238 43 -4.0
269 43 -4.0
300 43 -4.0
435 43 1.0
436 43 -1.0
0 44 5.0
22 44 5.0
28 44 -5.0
34 44 -35.0
40 44 -1.0
145 44 -5.0
176 44 -5.0
207 44 -5.0
238 44 -5.0
269 44 -5.0
300 44 -5.0
437 44 1.0
438 44 -1.0
0 45 6.0
22 45 6.0
28 45 -6.0
34 45 -48.0
40 45 -1.0
145 45 -6.0
176 45 -6.0
207 45 -6.0
238 45 -6.0
269 45 -6.0
300 45 -6.0
439 45 1.0
440 45 -1.0
0 46 7.0
22 46 7.0
28 46 -7.0
34 46 -63.0
40 46 -1.0
145 46 -7.0
176 46 -7.0
207 46 -7.0
238 46 -7.0
269 46 -7.0
300 46 -7.0
441 46 1.0
442 46 -1.0
0 47 1.0
23 47 1.0
29 47 -1.0
35 47 -3.0
41 47 -1.0
145 47 -1.0
176 47 -1.0
207 47 -1.0
238 47 -1.0
269 47 -1.0
300 47 -1.0
443 47 1.0
444 47 -1.0
0 48 2.0
23 48 2.0
29 48 -2.0
35 48 -8.0
41 48 -1.0
145 48 -2.0
176 48 -2.0
207 48 -2.0
238 48 -2.0
269 48 -2.0
300 48 -2.0
445 48 1.0
446 48 -1.0
0 49 3.0
23 49 3.0
29 49 -3.0
35 49 -15.0
41 49 -1.0
145 49 -3.0
176 49 -3.0
207 49 -3.0
238 49 -3.0
269 49 -3.0
300 49 -3.0
447 49 1.0
448 49 -1.0
0 50 4.0
23 50 4.0
29 50 -4.0
35 50 -24.0
41 50 -1.0
145 50 -4.0
176 50 -4.0
207 50 -4.0
238 50 -4.0
269 50 -4.0
300 50 -4.0
449 50 1.0
450 50 -1.0
0 51 1.0
24 51 1.0
30 51 -1.0
36 51 -3.0
42 51 -1.0
145 51 -1.0
176 51 -1.0
207 51 -1.0
238 51 -1.0
269 51 -1.0
300 51 -1.0
451 51 1.0
452 51 -1.0
0 52 2.0
24 52 2.0
30 52 -2.0
36 52 -8.0
42 52 -1.0
145 52 -2.0
176 52 -2.0
207 52 -2.0
238 52 -2.0
269 52 -2.0
300 52 -2.0
453 52 1.0
454 52 -1.0
0 53 -1.0
1 54 -330.0
7 54 330.0
13 54 -1.0
43 54 -3.0
79 54 -1.0
145 54 -1.0
455 54 1.0
456 54 -1.0
1 55 -660.0
7 55 660.0
13 55 -2.0
43 55 -8.0
79 55 -1.0
145 55 -2.0
457 55 1.0
458 55 -1.0
1 56 -360.0
7 56 360.0
13 56 -1.0
49 56 -3.0
85 56 -1.0
176 56 -1.0
479 56 1.0
480 56 -1.0
1 57 -720.0
7 57 720.0
13 57 -2.0
49 57 -8.0
85 57 -1.0
176 57 -2.0
481 57 1.0
482 57 -1.0
1 58 -1080.0
7 58 1080.0
13 58 -3.0
49 58 -15.0
85 58 -1.0
176 58 -3.0
483 58 1.0
484 58 -1.0
1 59 -380.0
7 59 380.0
13 59 -1.0
55 59 -3.0
91 59 -1.0
207 59 -1.0
515 59 1.0
516 59 -1.0
1 60 -760.0
7 60 760.0
13 60 -2.0
55 60 -8.0
91 60 -1.0
207 60 -2.0
517 60 1.0
518 60 -1.0
1 61 -1140.0
7 61 1140.0
13 61 -3.0
55 61 -15.0
91 61 -1.0
207 61 -3.0
519 61 1.0
520 61 -1.0
1 62 -430.0
7 62 430.0
13 62 -1.0
61 62 -3.0
97 62 -1.0
238 62 -1.0
551 62 1.0
552 62 -1.0
1 63 -860.0
7 63 860.0
13 63 -2.0
61 63 -8.0
97 63 -1.0
238 63 -2.0
553 63 1.0
554 63 -1.0
1 64 -1290.0
7 64 1290.0
13 64 -3.0
61 64 -15.0
97 64 -1.0
238 64 -3.0
555 64 1.0
556 64 -1.0
1 65 -1720.0
7 65 1720.0
13 65 -4.0
61 65 -24.0
97 65 -1.0
238 65 -4.0
557 65 1.0
558 65 -1.0
1 66 -2150.0
7 66 2150.0
13 66 -5.0
61 66 -35.0
97 66 -1.0
238 66 -5.0
559 66 1.0
560 66 -1.0
1 67 -490.0
7 67 490.0
13 67 -1.0
67 67 -3.0
103 67 -1.0
269 67 -1.0
611 67 1.0
612 67 -1.0
1 68 -980.0
7 68 980.0
13 68 -2.0
67 68 -8.0
103 68 -1.0
269 68 -2.0
613 68 1.0
614 68 -1.0
1 69 -1470.0
7 69 1470.0
13 69 -3.0
67 69 -15.0
103 69 -1.0
269 69 -3.0
615 69 1.0
616 69 -1.0
1 70 -530.0
7 70 530.0
13 70 -1.0
73 70 -3.0
109 70 -1.0
300 70 -1.0
647 70 1.0
648 70 -1.0
1 71 -1060.0
7 71 1060.0
13 71 -2.0
73 71 -8.0
109 71 -1.0
300 71 -2.0
649 71 1.0
650 71 -1.0
1 72 -1590.0
7 72 1590.0
13 72 -3.0
73 72 -15.0
109 72 -1.0
300 72 -3.0
651 72 1.0
652 72 -1.0
1 73 -2120.0
7 73 2120.0
13 73 -4.0
73 73 -24.0
109 73 -1.0
300 73 -4.0
653 73 1.0
654 73 -1.0
2 74 -330.0
8 74 330.0
14 74 -1.0
44 74 -3.0
80 74 -1.0
145 74 -1.0
459 74 1.0
460 74 -1.0
2 75 -660.0
8 75 660.0
14 75 -2.0
44 75 -8.0
80 75 -1.0
145 75 -2.0
461 75 1.0
462 75 -1.0
2 76 -360.0
8 76 360.0
14 76 -1.0
50 76 -3.0
86 76 -1.0
176 76 -1.0
485 76 1.0
486 76 -1.0
2 77 -720.0
8 77 720.0
14 77 -2.0
50 77 -8.0
86 77 -1.0
176 77 -2.0
487 77 1.0
488 77 -1.0
2 78 -1080.0
8 78 1080.0
14 78 -3.0
50 78 -15.0
86 78 -1.0
176 78 -3.0
489 78 1.0
490 78 -1.0
2 79 -380.0
8 79 380.0
14 79 -1.0
56 79 -3.0
92 79 -1.0
207 79 -1.0
521 79 1.0
522 79 -1.0
2 80 -760.0
8 80 760.0
14 80 -2.0
56 80 -8.0
92 80 -1.0
207 80 -2.0
523 80 1.0
524 80 -1.0
2 81 -1140.0
8 81 1140.0
14 81 -3.0
56 81 -15.0
92 81 -1.0
207 81 -3.0
525 81 1.0
526 81 -1.0
2 82 -430.0
8 82 430.0
14 82 -1.0
62 82 -3.0
98 82 -1.0
238 82 -1.0
561 82 1.0
562 82 -1.0
2 83 -860.0
8 83 860.0
14 83 -2.0
62 83 -8.0
98 83 -1.0
238 83 -2.0
563 83 1.0
564 83 -1.0
2 84 -1290.0
8 84 1290.0
14 84 -3.0
62 84 -15.0
98 84 -1.0
238 84 -3.0
565 84 1.0
566 84 -1.0
2 85 -1720.0
8 85 1720.0
14 85 -4.0
62 85 -24.0
98 85 -1.0
238 85 -4.0
567 85 1.0
568 85 -1.0
2 86 -2150.0
8 86 2150.0
14 86 -5.0
62 86 -35.0
98 86 -1.0
238 86 -5.0
569 86 1.0
570 86 -1.0
2 87 -490.0
8 87 490.0
14 87 -1.0
68 87 -3.0
104 87 -1.0
269 87 -1.0
617 87 1.0
618 87 -1.0
2 88 -980.0
8 88 980.0
14 88 -2.0
68 88 -8.0
104 88 -1.0
269 88 -2.0
619 88 1.0
620 88 -1.0
2 89 -1470.0
8 89 1470.0
14 89 -3.0
68 89 -15.0
104 89 -1.0
269 89 -3.0
621 89 1.0
622 89 -1.0
2 90 -530.0
8 90 530.0
14 90 -1.0
74 90 -3.0
110 90 -1.0
300 90 -1.0
655 90 1.0
656 90 -1.0
2 91 -1060.0
8 91 1060.0
14 91 -2.0
74 91 -8.0
110 91 -1.0
300 91 -2.0
657 91 1.0
658 91 -1.0
2 92 -1590.0
8 92 1590.0
14 92 -3.0
74 92 -15.0
110 92 -1.0
300 92 -3.0
659 92 1.0
660 92 -1.0
2 93 -2120.0
8 93 2120.0
14 93 -4.0
74 93 -24.0
110 93 -1.0
300 93 -4.0
661 93 1.0
662 93 -1.0
3 94 -330.0
9 94 330.0
15 94 -1.0
45 94 -3.0
81 94 -1.0
145 94 -1.0
463 94 1.0
464 94 -1.0
3 95 -660.0
9 95 660.0
15 95 -2.0
45 95 -8.0
81 95 -1.0
145 95 -2.0
465 95 1.0
466 95 -1.0
3 96 -360.0
9 96 360.0
15 96 -1.0
51 96 -3.0
87 96 -1.0
176 96 -1.0
491 96 1.0
492 96 -1.0
3 97 -720.0
9 97 720.0
15 97 -2.0
51 97 -8.0
87 97 -1.0
176 97 -2.0
493 97 1.0
494 97 -1.0
3 98 -1080.0
9 98 1080.0
15 98 -3.0
51 98 -15.0
87 98 -1.0
176 98 -3.0
495 98 1.0
496 98 -1.0
3 99 -380.0
9 99 380.0
15 99 -1.0
57 99 -3.0
93 99 -1.0
207 99 -1.0
527 99 1.0
528 99 -1.0
3 100 -760.0
9 100 760.0
15 100 -2.0
57 100 -8.0
93 100 -1.0
207 100 -2.0
529 100 1.0
530 100 -1.0
3 101 -1140.0
9 101 1140.0
15 101 -3.0
57 101 -15.0
93 101 -1.0
207 101 -3.0
531 101 1.0
532 101 -1.0
3 102 -430.0
9 102 430.0
15 102 -1.0
63 102 -3.0
99 102 -1.0
238 102 -1.0
571 102 1.0
572 102 -1.0
3 103 -860.0
9 103 860.0
15 103 -2.0
63 103 -8.0
99 103 -1.0
238 103 -2.0
573 103 1.0
574 103 -1.0
3 104 -1290.0
9 104 1290.0
15 104 -3.0
63 104 -15.0
99 104 -1.0
238 104 -3.0
575 104 1.0
576 104 -1.0
3 105 -1720.0
9 105 1720.0
15 105 -4.0
63 105 -24.0
99 105 -1.0
238 105 -4.0
577 105 1.0
578 105 -1.0
3 106 -2150.0
9 106 2150.0
15 106 -5.0
63 106 -35.0
99 106 -1.0
238 106 -5.0
579 106 1.0
580 106 -1.0
3 107 -490.0
9 107 490.0
15 107 -1.0
69 107 -3.0
105 107 -1.0
269 107 -1.0
623 107 1.0
624 107 -1.0
3 108 -980.0
9 108 980.0
15 108 -2.0
69 108 -8.0
105 108 -1.0
269 108 -2.0
625 108 1.0
626 108 -1.0
3 109 -1470.0
9 109 1470.0
15 109 -3.0
69 109 -15.0
105 109 -1.0
269 109 -3.0
627 109 1.0
628 109 -1.0
3 110 -530.0
9 110 530.0
15 110 -1.0
75 110 -3.0
111 110 -1.0
300 110 -1.0
663 110 1.0
664 110 -1.0
3 111 -1060.0
9 111 1060.0
15 111 -2.0
75 111 -8.0
111 111 -1.0
300 111 -2.0
665 111 1.0
666 111 -1.0
3 112 -1590.0
9 112 1590.0
15 112 -3.0
75 112 -15.0
111 112 -1.0
300 112 -3.0
667 112 1.0
668 112 -1.0
3 113 -2120.0
9 113 2120.0
15 113 -4.0
75 113 -24.0
111 113 -1.0
300 113 -4.0
669 113 1.0
670 113 -1.0
4 114 -330.0
10 114 330.0
16 114 -1.0
46 114 -3.0
82 114 -1.0
145 114 -1.0
467 114 1.0
468 114 -1.0
4 115 -660.0
10 115 660.0
16 115 -2.0
46 115 -8.0
82 115 -1.0
145 115 -2.0
469 115 1.0
470 115 -1.0
4 116 -360.0
10 116 360.0
16 116 -1.0
52 116 -3.0
88 116 -1.0
176 116 -1.0
497 116 1.0
498 116 -1.0
4 117 -720.0
10 117 720.0
16 117 -2.0
52 117 -8.0
88 117 -1.0
176 117 -2.0
499 117 1.0
500 117 -1.0
4 118 -1080.0
10 118 1080.0
16 118 -3.0
52 118 -15.0
88 118 -1.0
176 118 -3.0
501 118 1.0
502 118 -1.0
4 119 -380.0
10 119 380.0
16 119 -1.0
58 119 -3.0
94 119 -1.0
207 119 -1.0
533 119 1.0
534 119 -1.0
4 120 -760.0
10 120 760.0
16 120 -2.0
58 120 -8.0
94 120 -1.0
207 120 -2.0
535 120 1.0
536 120 -1.0
4 121 -1140.0
10 121 1140.0
16 121 -3.0
58 121 -15.0
94 121 -1.0
207 121 -3.0
537 121 1.0
538 121 -1.0
4 122 -430.0
10 122 430.0
16 122 -1.0
64 122 -3.0
100 122 -1.0
238 122 -1.0
581 122 1.0
582 122 -1.0
4 123 -860.0
10 123 860.0
16 123 -2.0
64 123 -8.0
100 123 -1.0
238 123 -2.0
583 123 1.0
584 123 -1.0
4 124 -1290.0
10 124 1290.0
16 124 -3.0
64 124 -15.0
100 124 -1.0
238 124 -3.0
585 124 1.0
586 124 -1.0
4 125 -1720.0
10 125 1720.0
16 125 -4.0
64 125 -24.0
100 125 -1.0
238 125 -4.0
587 125 1.0
588 125 -1.0
4 126 -2150.0
10 126 2150.0
16 126 -5.0
64 126 -35.0
100 126 -1.0
238 126 -5.0
589 126 1.0
590 126 -1.0
4 127 -490.0
10 127 490.0
16 127 -1.0
70 127 -3.0
106 127 -1.0
269 127 -1.0
629 127 1.0
630 127 -1.0
4 128 -980.0
10 128 980.0
16 128 -2.0
70 128 -8.0
106 128 -1.0
269 128 -2.0
631 128 1.0
632 128 -1.0
4 129 -1470.0
10 129 1470.0
16 129 -3.0
70 129 -15.0
106 129 -1.0
269 129 -3.0
633 129 1.0
634 129 -1.0
4 130 -530.0
10 130 530.0
16 130 -1.0
76 130 -3.0
112 130 -1.0
300 130 -1.0
671 130 1.0
672 130 -1.0
4 131 -1060.0
10 131 1060.0
16 131 -2.0
76 131 -8.0
112 131 -1.0
300 131 -2.0
673 131 1.0
674 131 -1.0
4 132 -1590.0
10 132 1590.0
16 132 -3.0
76 132 -15.0
112 132 -1.0
300 132 -3.0
675 132 1.0
676 132 -1.0
4 133 -2120.0
10 133 2120.0
16 133 -4.0
76 133 -24.0
112 133 -1.0
300 133 -4.0
677 133 1.0
678 133 -1.0
5 134 -330.0
11 134 330.0
17 134 -1.0
47 134 -3.0
83 134 -1.0
145 134 -1.0
471 134 1.0
472 134 -1.0
5 135 -660.0
11 135 660.0
17 135 -2.0
47 135 -8.0
83 135 -1.0
145 135 -2.0
473 135 1.0
474 135 -1.0
5 136 -360.0
11 136 360.0
17 136 -1.0
53 136 -3.0
89 136 -1.0
176 136 -1.0
503 136 1.0
504 136 -1.0
5 137 -720.0
11 137 720.0
17 137 -2.0
53 137 -8.0
89 137 -1.0
176 137 -2.0
505 137 1.0
506 137 -1.0
5 138 -1080.0
11 138 1080.0
17 138 -3.0
53 138 -15.0
89 138 -1.0
176 138 -3.0
507 138 1.0
508 138 -1.0
5 139 -380.0
11 139 380.0
17 139 -1.0
59 139 -3.0
95 139 -1.0
207 139 -1.0
539 139 1.0
540 139 -1.0
5 140 -760.0
11 140 760.0
17 140 -2.0
59 140 -8.0
95 140 -1.0
207 140 -2.0
541 140 1.0
542 140 -1.0
5 141 -1140.0
11 141 1140.0
17 141 -3.0
59 141 -15.0
95 141 -1.0
207 141 -3.0
543 141 1.0
544 141 -1.0
5 142 -430.0
11 142 430.0
17 142 -1.0
65 142 -3.0
101 142 -1.0
238 142 -1.0
591 142 1.0
592 142 -1.0
5 143 -860.0
11 143 860.0
17 143 -2.0
65 143 -8.0
101 143 -1.0
238 143 -2.0
593 143 1.0
594 143 -1.0
5 144 -1290.0
11 144 1290.0
17 144 -3.0
65 144 -15.0
101 144 -1.0
238 144 -3.0
595 144 1.0
596 144 -1.0
5 145 -1720.0
11 145 1720.0
17 145 -4.0
65 145 -24.0
101 145 -1.0
238 145 -4.0
597 145 1.0
598 145 -1.0
5 146 -2150.0
11 146 2150.0
17 146 -5.0
65 146 -35.0
101 146 -1.0
238 146 -5.0
599 146 1.0
600 146 -1.0
5 147 -490.0
11 147 490.0
17 147 -1.0
71 147 -3.0
107 147 -1.0
269 147 -1.0
635 147 1.0
636 147 -1.0
5 148 -980.0
11 148 980.0
17 148 -2.0
71 148 -8.0
107 148 -1.0
269 148 -2.0
637 148 1.0
638 148 -1.0
5 149 -1470.0
11 149 1470.0
17 149 -3.0
71 149 -15.0
107 149 -1.0
269 149 -3.0
639 149 1.0
640 149 -1.0
5 150 -530.0
11 150 530.0
17 150 -1.0
77 150 -3.0
113 150 -1.0
300 150 -1.0
679 150 1.0
680 150 -1.0
5 151 -1060.0
11 151 1060.0
17 151 -2.0
77 151 -8.0
113 151 -1.0
300 151 -2.0
681 151 1.0
682 151 -1.0
5 152 -1590.0
11 152 1590.0
17 152 -3.0
77 152 -15.0
113 152 -1.0
300 152 -3.0
683 152 1.0
684 152 -1.0
5 153 -2120.0
11 153 2120.0
17 153 -4.0
77 153 -24.0
113 153 -1.0
300 153 -4.0
685 153 1.0
686 153 -1.0
6 154 -330.0
12 154 330.0
18 154 -1.0
48 154 -3.0
84 154 -1.0
145 154 -1.0
475 154 1.0
476 154 -1.0
6 155 -660.0
12 155 660.0
18 155 -2.0
48 155 -8.0
84 155 -1.0
145 155 -2.0
477 155 1.0
478 155 -1.0
6 156 -360.0
12 156 360.0
18 156 -1.0
54 156 -3.0
90 156 -1.0
176 156 -1.0
509 156 1.0
510 156 -1.0
6 157 -720.0
12 157 720.0
18 157 -2.0
54 157 -8.0
90 157 -1.0
176 157 -2.0
511 157 1.0
512 157 -1.0
6 158 -1080.0
12 158 1080.0
18 158 -3.0
54 158 -15.0
90 158 -1.0
176 158 -3.0
513 158 1.0
514 158 -1.0
6 159 -380.0
12 159 380.0
18 159 -1.0
60 159 -3.0
96 159 -1.0
207 159 -1.0
545 159 1.0
546 159 -1.0
6 160 -760.0
12 160 760.0
18 160 -2.0
60 160 -8.0
96 160 -1.0
207 160 -2.0
547 160 1.0
548 160 -1.0
6 161 -1140.0
12 161 1140.0
18 161 -3.0
60 161 -15.0
96 161 -1.0
207 161 -3.0
549 161 1.0
550 161 -1.0
6 162 -430.0
12 162 430.0
18 162 -1.0
66 162 -3.0
102 162 -1.0
238 162 -1.0
601 162 1.0
602 162 -1.0
6 163 -860.0
12 163 860.0
18 163 -2.0
66 163 -8.0
102 163 -1.0
238 163 -2.0
603 163 1.0
604 163 -1.0
6 164 -1290.0
12 164 1290.0
18 164 -3.0
66 164 -15.0
102 164 -1.0
238 164 -3.0
605 164 1.0
606 164 -1.0
6 165 -1720.0
12 165 1720.0
18 165 -4.0
66 165 -24.0
102 165 -1.0
238 165 -4.0
607 165 1.0
608 165 -1.0
6 166 -2150.0
12 166 2150.0
18 166 -5.0
66 166 -35.0
102 166 -1.0
238 166 -5.0
609 166 1.0
610 166 -1.0
6 167 -490.0
12 167 490.0
18 167 -1.0
72 167 -3.0
108 167 -1.0
269 167 -1.0
641 167 1.0
642 167 -1.0
6 168 -980.0
12 168 980.0
18 168 -2.0
72 168 -8.0
108 168 -1.0
269 168 -2.0
643 168 1.0
644 168 -1.0
6 169 -1470.0
12 169 1470.0
18 169 -3.0
72 169 -15.0
108 169 -1.0
269 169 -3.0
645 169 1.0
646 169 -1.0
6 170 -530.0
12 170 530.0
18 170 -1.0
78 170 -3.0
114 170 -1.0
300 170 -1.0
687 170 1.0
688 170 -1.0
6 171 -1060.0
12 171 1060.0
18 171 -2.0
78 171 -8.0
114 171 -1.0
300 171 -2.0
689 171 1.0
690 171 -1.0
6 172 -1590.0
12 172 1590.0
18 172 -3.0
78 172 -15.0
114 172 -1.0
300 172 -3.0
691 172 1.0
692 172 -1.0
6 173 -2120.0
12 173 2120.0
18 173 -4.0
78 173 -24.0
114 173 -1.0
300 173 -4.0
693 173 1.0
694 173 -1.0
31 174 1.0
115 174 1.0
116 174 -1.0
118 174 1.0
146 174 1.0
147 174 -1.0
149 174 1.0
177 174 1.0
178 174 -1.0
180 174 1.0
208 174 1.0
209 174 -1.0
211 174 1.0
239 174 1.0
240 174 -1.0
242 174 1.0
270 174 1.0
271 174 -1.0
273 174 1.0
313 174 1.0
314 174 -1.0
32 175 1.0
120 175 1.0
121 175 -1.0
123 175 1.0
151 175 1.0
152 175 -1.0
154 175 1.0
182 175 1.0
183 175 -1.0
185 175 1.0
213 175 1.0
214 175 -1.0
216 175 1.0
244 175 1.0
245 175 -1.0
247 175 1.0
275 175 1.0
276 175 -1.0
278 175 1.0
315 175 1.0
316 175 -1.0
33 176 1.0
125 176 1.0
126 176 -1.0
128 176 1.0
156 176 1.0
157 176 -1.0
159 176 1.0
187 176 1.0
188 176 -1.0
190 176 1.0
218 176 1.0
219 176 -1.0
221 176 1.0
249 176 1.0
250 176 -1.0
252 176 1.0
280 176 1.0
281 176 -1.0
283 176 1.0
317 176 1.0
318 176 -1.0
34 177 1.0
130 177 1.0
131 177 -1.0
133 177 1.0
161 177 1.0
162 177 -1.0
164 177 1.0
192 177 1.0
193 177 -1.0
195 177 1.0
223 177 1.0
224 177 -1.0
226 177 1.0
254 177 1.0
255 177 -1.0
257 177 1.0
285 177 1.0
286 177 -1.0
288 177 1.0
319 177 1.0
320 177 -1.0
35 178 1.0
135 178 1.0
136 178 -1.0
138 178 1.0
166 178 1.0
167 178 -1.0
169 178 1.0
197 178 1.0
198 178 -1.0
200 178 1.0
228 178 1.0
229 178 -1.0
231 178 1.0
259 178 1.0
260 178 -1.0
262 178 1.0
290 178 1.0
291 178 -1.0
293 178 1.0
321 178 1.0
322 178 -1.0
36 179 1.0
140 179 1.0
141 179 -1.0
143 179 1.0
171 179 1.0
172 179 -1.0
174 179 1.0
202 179 1.0
203 179 -1.0
205 179 1.0
233 179 1.0
234 179 -1.0
236 179 1.0
264 179 1.0
265 179 -1.0
267 179 1.0
295 179 1.0
296 179 -1.0
298 179 1.0
323 179 1.0
324 179 -1.0
43 180 1.0
115 180 1.0
116 180 1.0
119 180 1.0
325 180 1.0
44 181 1.0
120 181 1.0
121 181 1.0
124 181 1.0
326 181 1.0
45 182 1.0
125 182 1.0
126 182 1.0
129 182 1.0
327 182 1.0
46 183 1.0
130 183 1.0
131 183 1.0
134 183 1.0
328 183 1.0
47 184 1.0
135 184 1.0
136 184 1.0
139 184 1.0
329 184 1.0
48 185 1.0
140 185 1.0
141 185 1.0
144 185 1.0
330 185 1.0
49 186 1.0
146 186 1.0
147 186 1.0
150 186 1.0
331 186 1.0
50 187 1.0
151 187 1.0
152 187 1.0
155 187 1.0
332 187 1.0
51 188 1.0
156 188 1.0
157 188 1.0
160 188 1.0
333 188 1.0
52 189 1.0
161 189 1.0
162 189 1.0
165 189 1.0
334 189 1.0
53 190 1.0
166 190 1.0
167 190 1.0
170 190 1.0
335 190 1.0
54 191 1.0
171 191 1.0
172 191 1.0
175 191 1.0
336 191 1.0
55 192 1.0
177 192 1.0
178 192 1.0
181 192 1.0
337 192 1.0
56 193 1.0
182 193 1.0
183 193 1.0
186 193 1.0
338 193 1.0
57 194 1.0
187 194 1.0
188 194 1.0
191 194 1.0
339 194 1.0
58 195 1.0
192 195 1.0
193 195 1.0
196 195 1.0
340 195 1.0
59 196 1.0
197 196 1.0
198 196 1.0
201 196 1.0
341 196 1.0
60 197 1.0
202 197 1.0
203 197 1.0
206 197 1.0
342 197 1.0
61 198 1.0
208 198 1.0
209 198 1.0
212 198 1.0
343 198 1.0
62 199 1.0
213 199 1.0
214 199 1.0
217 199 1.0
344 199 1.0
63 200 1.0
218 200 1.0
219 200 1.0
222 200 1.0
345 200 1.0
64 201 1.0
223 201 1.0
224 201 1.0
227 201 1.0
346 201 1.0
65 202 1.0
228 202 1.0
229 202 1.0
232 202 1.0
347 202 1.0
66 203 1.0
233 203 1.0
234 203 1.0
237 203 1.0
348 203 1.0
67 204 1.0
239 204 1.0
240 204 1.0
243 204 1.0
349 204 1.0
68 205 1.0
244 205 1.0
245 205 1.0
248 205 1.0
350 205 1.0
69 206 1.0
249 206 1.0
250 206 1.0
253 206 1.0
351 206 1.0
70 207 1.0
254 207 1.0
255 207 1.0
258 207 1.0
352 207 1.0
71 208 1.0
259 208 1.0
260 208 1.0
263 208 1.0
353 208 1.0
72 209 1.0
264 209 1.0
265 209 1.0
268 209 1.0
354 209 1.0
73 210 1.0
270 210 1.0
271 210 1.0
274 210 1.0
355 210 1.0
74 211 1.0
275 211 1.0
276 211 1.0
279 211 1.0
356 211 1.0
75 212 1.0
280 212 1.0
281 212 1.0
284 212 1.0
357 212 1.0
76 213 1.0
285 213 1.0
286 213 1.0
289 213 1.0
358 213 1.0
77 214 1.0
290 214 1.0
291 214 1.0
294 214 1.0
359 214 1.0
78 215 1.0
295 215 1.0
296 215 1.0
299 215 1.0
360 215 1.0
117 216 2.0
145 216 1.0
122 217 2.0
145 217 1.0
127 218 2.0
145 218 1.0
132 219 2.0
145 219 1.0
137 220 2.0
145 220 1.0
142 221 2.0
145 221 1.0
148 222 2.0
176 222 1.0
153 223 2.0
176 223 1.0
158 224 2.0
176 224 1.0
163 225 2.0
176 225 1.0
168 226 2.0
176 226 1.0
173 227 2.0
176 227 1.0
179 228 2.0
207 228 1.0
184 229 2.0
207 229 1.0
189 230 2.0
207 230 1.0
194 231 2.0
207 231 1.0
199 232 2.0
207 232 1.0
204 233 2.0
207 233 1.0
210 234 2.0
238 234 1.0
215 235 2.0
238 235 1.0
220 236 2.0
238 236 1.0
225 237 2.0
238 237 1.0
230 238 2.0
238 238 1.0
235 239 2.0
238 239 1.0
241 240 2.0
269 240 1.0
246 241 2.0
269 241 1.0
251 242 2.0
269 242 1.0
256 243 2.0
269 243 1.0
261 244 2.0
269 244 1.0
266 245 2.0
269 245 1.0
272 246 2.0
300 246 1.0
277 247 2.0
300 247 1.0
282 248 2.0
300 248 1.0
287 249 2.0
300 249 1.0
292 250 2.0
300 250 1.0
297 251 2.0
300 251 1.0

BCOORD
329
1 2200.0
2 2200.0
3 2200.0
4 2200.0
5 2200.0
6 2200.0
7 -2100.0
8 -2100.0
9 -2100.0
10 -2100.0
11 -2100.0
12 -2100.0
13 5.0
14 5.0
15 5.0
16 5.0
17 5.0
18 5.0
31 -1.0
32 -1.0
33 -1.0
34 -1.0
35 -1.0
36 -1.0
37 1.0
38 1.0
39 1.0
40 1.0
41 1.0
42 1.0
43 -1.0
44 -1.0
45 -1.0
46 -1.0
47 -1.0
48 -1.0
49 -1.0
50 -1.0
51 -1.0
52 -1.0
53 -1.0
54 -1.0
55 -1.0
56 -1.0
57 -1.0
58 -1.0
59 -1.0
60 -1.0
61 -1.0
62 -1.0
63 -1.0
64 -1.0
65 -1.0
66 -1.0
67 -1.0
68 -1.0
69 -1.0
70 -1.0
71 -1.0
72 -1.0
73 -1.0
74 -1.0
75 -1.0
76 -1.0
77 -1.0
78 -1.0
79 1.0
80 1.0
81 1.0
82 1.0
83 1.0
84 1.0
85 1.0
86 1.0
87 1.0
88 1.0
89 1.0
90 1.0
91 1.0
92 1.0
93 1.0
94 1.0
95 1.0
96 1.0
97 1.0
98 1.0
99 1.0
100 1.0
101 1.0
102 1.0
103 1.0
104 1.0
105 1.0
106 1.0
107 1.0
108 1.0
109 1.0
110 1.0
111 1.0
112 1.0
113 1.0
114 1.0
145 -14.0
176 -22.0
207 -18.0
238 -13.0
269 -20.0
300 -22.0
302 1.0
304 1.0
306 1.0
308 1.0
310 1.0
312 1.0
313 -1.0
314 100.0
315 -1.0
316 100.0
317 -1.0
318 100.0
319 -1.0
320 100.0
321 -1.0
322 100.0
323 -1.0
324 100.0
325 -1.0
326 -1.0
327 -1.0
328 -1.0
329 -1.0
330 -1.0
331 -1.0
332 -1.0
333 -1.0
334 -1.0
335 -1.0
336 -1.0
337 -1.0
338 -1.0
339 -1.0
340 -1.0
341 -1.0
342 -1.0
343 -1.0
344 -1.0
345 -1.0
346 -1.0
347 -1.0
348 -1.0
349 -1.0
350 -1.0
351 -1.0
352 -1.0
353 -1.0
354 -1.0
355 -1.0
356 -1.0
357 -1.0
358 -1.0
359 -1.0
360 -1.0
362 1.0
364 1.0
366 1.0
368 1.0
370 1.0
372 1.0
374 1.0
376 1.0
378 1.0
380 1.0
382 1.0
384 1.0
386 1.0
388 1.0
390 1.0
392 1.0
394 1.0
396 1.0
398 1.0
400 1.0
402 1.0
404 1.0
406 1.0
408 1.0
410 1.0
412 1.0
414 1.0
416 1.0
418 1.0
420 1.0
422 1.0
424 1.0
426 1.0
428 1.0
430 1.0
432 1.0
434 1.0
436 1.0
438 1.0
440 1.0
442 1.0
444 1.0
446 1.0
448 1.0
450 1.0
452 1.0
454 1.0
456 1.0
458 1.0
460 1.0
462 1.0
464 1.0
466 1.0
468 1.0
470 1.0
472 1.0
474 1.0
476 1.0
478 1.0
480 1.0
482 1.0
484 1.0
486 1.0
488 1.0
490 1.0
492 1.0
494 1.0
496 1.0
498 1.0
500 1.0
502 1.0
504 1.0
506 1.0
508 1.0
510 1.0
512 1.0
514 1.0
516 1.0
518 1.0
520 1.0
522 1.0
524 1.0
526 1.0
528 1.0
530 1.0
532 1.0
534 1.0
536 1.0
538 1.0
540 1.0
542 1.0
544 1.0
546 1.0
548 1.0
550 1.0
552 1.0
554 1.0
556 1.0
558 1.0
560 1.0
562 1.0
564 1.0
566 1.0
568 1.0
570 1.0
572 1.0
574 1.0
576 1.0
578 1.0
580 1.0
582 1.0
584 1.0
586 1.0
588 1.0
590 1.0
592 1.0
594 1.0
596 1.0
598 1.0
600 1.0
602 1.0
604 1.0
606 1.0
608 1.0
610 1.0
612 1.0
614 1.0
616 1.0
618 1.0
620 1.0
622 1.0
624 1.0
626 1.0
628 1.0
630 1.0
632 1.0
634 1.0
636 1.0
638 1.0
640 1.0
642 1.0
644 1.0
646 1.0
648 1.0
650 1.0
652 1.0
654 1.0
656 1.0
658 1.0
660 1.0
662 1.0
664 1.0
666 1.0
668 1.0
670 1.0
672 1.0
674 1.0
676 1.0
678 1.0
680 1.0
682 1.0
684 1.0
686 1.0
688 1.0
690 1.0
692 1.0
694 1.0
